Route #1: 99 63 124 87 144 80 105 18 54 42 79 121 44 152 103 86 5
Route #2: 36 110 34 164 81 45 98 150 135 40 50 19 142 102 100 108 27 101
Route #3: 65 31 24 133 70 141 39 11 82 120 112 59 95 75 160 4 149 21
Route #4: 158 131 38 151 153 116 148 97 115 125 156 85 14 96 17 159 15
Route #5: 52 48 68 162 62 123 35 26 165 126 127 61 58 56 155 47 118
Route #6: 138 78 41 74 33 166 90 161 91 49 64 107 129 145 163 88 114 8
Route #7: 136 111 122 1 13 77 57 12 104 147 117 43 66 20 94 106 128
Route #8: 89 6 7 137 83 69 22 73 25 93 9 157 92 30 46 140 119 134
Route #9: 76 53 51 146 84 37 10 72 32 28 29 2 16 109 55 143
Route #10: 23 139 154 132 60 113 71 130 3 67
Cost 22969
